c numero: 19
c nombre: n-30-d-0.3
c densidad: 0.3
p edges 30 119
e 1 5
e 1 24
e 1 26
e 2 7
e 2 11
e 2 13
e 2 19
e 2 20
e 2 21
e 2 26
e 2 27
e 2 28
e 2 29
e 2 30
e 3 9
e 3 10
e 3 22
e 3 27
e 3 28
e 3 29
e 4 5
e 4 6
e 4 8
e 4 11
e 4 13
e 4 14
e 4 16
e 4 21
e 4 26
e 4 30
e 5 7
e 5 19
e 5 20
e 5 25
e 5 26
e 5 29
e 6 7
e 6 11
e 6 13
e 6 15
e 6 30
e 7 21
e 7 22
e 7 25
e 7 26
e 7 30
e 8 20
e 8 24
e 8 27
e 8 30
e 9 10
e 9 12
e 9 17
e 9 20
e 9 22
e 9 26
e 9 27
e 9 29
e 10 18
e 10 19
e 10 25
e 10 28
e 11 13
e 11 16
e 11 17
e 11 19
e 11 20
e 11 21
e 11 29
e 11 30
e 12 13
e 12 19
e 12 23
e 12 24
e 12 30
e 13 19
e 13 20
e 13 23
e 13 27
e 13 30
e 14 15
e 14 16
e 14 17
e 14 19
e 14 24
e 14 26
e 14 30
e 15 17
e 15 21
e 15 24
e 16 18
e 16 21
e 16 28
e 16 29
e 17 19
e 17 20
e 17 23
e 18 19
e 18 23
e 18 26
e 18 27
e 19 25
e 19 30
e 20 22
e 20 29
e 20 30
e 21 24
e 21 26
e 21 29
e 21 30
e 22 23
e 22 28
e 23 25
e 23 26
e 23 29
e 24 26
e 25 26
e 26 29
e 27 29
